data;

param num_top:=5;

#nodes and edges of the physical network
param n := 10;

set E := (1,2) (1,3) (1,7) (2,4) (2,7) (3,5) (4,8) (5,6) (5,7) (6,7) (6,9) (7,8) (7,9) (8,10) (9,10) ;

#nodes and edges of the virtual networks
set Nl[1] := 1 6 2 4 ;
set Nl[2] := 9 8 5 1 ;
set Nl[3] := 3 4 2 9 6 ;
set Nl[4] := 3 4 7 1 2 ;
set Nl[5] := 9 2 4 10 ;

set El[1] := (1,6) (2,6) (2,4) (1,4) ;
set El[2] := (8,9) (5,8) (1,5) (1,9) (1,8) (5,9) ;
set El[3] := (3,4) (2,4) (2,9) (6,9) (3,6) ;
set El[4] := (3,4) (4,7) (1,7) (1,2) (2,3) (1,4) (2,4) (2,7) (3,7) (1,3) ;
set El[5] := (2,9) (2,4) (4,10) (9,10) (2,10) (4,9) ;
